Instance name: /home/cuong/CLionProjects/uMV-FSTSP/Murray_Chu_2015_test_data/FSTSP/FSTSP_10_customer_problems/20140810T123443v12
Write arg val: 1

drone speed: 0.6 miles/minute
uav non-eligible customer: 4 8 
Printing tau:
0 20.1617 17.555 24.7489 26.848 22.0899 22.0816 22.3793 17.0796 19.5667 16.3153 0 
20.1617 0 8.59672 16.5872 14.8463 1.92825 1.9199 7.49765 3.32128 11.405 7.04299 20.1617 
17.555 8.59672 0 25.184 23.443 8.42508 9.39342 16.0944 11.7546 20.0018 15.6397 17.555 
24.7489 16.5872 25.184 0 20.0769 16.7589 15.7905 15.6083 13.4294 5.1822 10.0243 24.7489 
26.848 14.8463 23.443 20.0769 0 15.0179 14.0496 7.34864 11.6884 17.2947 10.5327 26.848 
22.0899 1.92825 8.42508 16.7589 15.0179 0 0.968346 7.66929 5.01036 12.5367 7.21463 22.0899 
22.0816 1.9199 9.39342 15.7905 14.0496 0.968346 0 6.70095 5.00201 12.5283 6.24629 22.0816 
22.3793 7.49765 16.0944 15.6083 7.34864 7.66929 6.70095 0 5.29976 12.8261 6.06403 22.3793 
17.0796 3.32128 11.7546 13.4294 11.6884 5.01036 5.00201 5.29976 0 8.24716 3.8851 17.0796 
19.5667 11.405 20.0018 5.1822 17.2947 12.5367 12.5283 12.8261 8.24716 0 6.76206 19.5667 
16.3153 7.04299 15.6397 10.0243 10.5327 7.21463 6.24629 6.06403 3.8851 6.76206 0 16.3153 
0 0 0 0 0 0 0 0 0 0 0 0 
Printing tau_prime:
0 10.9859 8.86935 12.9595 17.8584 11.8645 12.0358 13.7956 10.3491 10.9977 11.2641 0 
10.9859 0 4.53721 10.7671 8.22389 0.977764 1.04987 3.94906 2.22874 7.86711 4.05316 10.9859 
8.86935 4.53721 0 13.8369 12.7369 4.83259 5.26653 8.48623 5.94183 10.8808 7.92402 8.86935 
12.9595 10.7671 13.8369 0 10.1784 11.4679 11.1089 9.12274 8.55077 2.97077 6.81733 12.9595 
17.8584 8.22389 12.7369 10.1784 0 7.95679 7.49335 4.34398 7.69376 8.9064 6.62071 17.8584 
11.8645 0.977764 4.83259 11.4679 7.95679 0 0.489107 3.87634 3.03842 8.61874 4.66744 11.8645 
12.0358 1.04987 5.26653 11.1089 7.49335 0.489107 0 3.38783 2.79373 8.29151 4.29363 12.0358 
13.7956 3.94906 8.48623 9.12274 4.34398 3.87634 3.38783 0 3.45972 6.7721 3.0714 13.7956 
10.3491 2.22874 5.94183 8.55077 7.69376 3.03842 2.79373 3.45972 0 5.63927 1.99988 10.3491 
10.9977 7.86711 10.8808 2.97077 8.9064 8.61874 8.29151 6.7721 5.63927 0 4.06431 10.9977 
11.2641 4.05316 7.92402 6.81733 6.62071 4.66744 4.29363 3.0714 1.99988 4.06431 0 11.2641 
0 0 0 0 0 0 0 0 0 0 0 0 
Warning:  Output names have been modified due to duplicate names or characters invalid in LP format.
Version identifier: 22.1.1.0 | 2022-11-28 | 9160aff4d
CPXPARAM_Emphasis_MIP                            2
CPXPARAM_MIP_Tolerances_Integrality              0
Tried aggregator 2 times.
MIP Presolve eliminated 711 rows and 1468 columns.
MIP Presolve modified 2034 coefficients.
Aggregator did 24 substitutions.
Reduced MIP has 1011 rows, 3284 columns, and 32038 nonzeros.
Reduced MIP has 3263 binaries, 0 generals, 0 SOSs, and 0 indicators.
Presolve time = 0.03 sec. (49.45 ticks)
Found incumbent of value 11049.214556 after 0.04 sec. (75.38 ticks)
Probing fixed 150 vars, tightened 0 bounds.
Probing changed sense of 4 constraints.
Probing time = 0.05 sec. (118.72 ticks)
Tried aggregator 2 times.
Detecting symmetries...
MIP Presolve eliminated 69 rows and 152 columns.
MIP Presolve modified 276 coefficients.
Aggregator did 9 substitutions.
Reduced MIP has 933 rows, 3123 columns, and 29572 nonzeros.
Reduced MIP has 3102 binaries, 0 generals, 0 SOSs, and 0 indicators.
Presolve time = 0.03 sec. (44.66 ticks)
Probing time = 0.00 sec. (6.32 ticks)
Clique table members: 12510.
MIP emphasis: optimality.
MIP search method: dynamic search.
Parallel mode: deterministic, using up to 20 threads.
Root relaxation solution time = 0.07 sec. (150.61 ticks)

        Nodes                                         Cuts/
   Node  Left     Objective  IInf  Best Integer    Best Bound    ItCnt     Gap

*     0+    0                        11049.2146       16.3153            99.85%
      0     0       63.9741   134    11049.2146       63.9741       20   99.42%
*     0+    0                           77.3599       63.9741            17.30%
      0     0       65.1597   151       77.3599       Cuts: 9      340   15.77%
*     0+    0                           71.6175       65.1597             9.02%
      0     0       65.8085   160       71.6175      Cuts: 32     1351    8.11%
*     0+    0                           69.1950       65.8085             4.89%
      0     0       66.0446   115       69.1950      Cuts: 32     2019    4.55%
Detecting symmetries...

Repeating presolve.
Tried aggregator 2 times.
MIP Presolve eliminated 136 rows and 1220 columns.
MIP Presolve modified 634 coefficients.
Aggregator did 29 substitutions.
Reduced MIP has 768 rows, 1874 columns, and 18782 nonzeros.
Reduced MIP has 1853 binaries, 0 generals, 0 SOSs, and 0 indicators.
Presolve time = 0.01 sec. (21.48 ticks)
Probing fixed 338 vars, tightened 0 bounds.
Probing changed sense of 1 constraints.
Probing time = 0.03 sec. (66.89 ticks)
Cover probing fixed 0 vars, tightened 5 bounds.
Tried aggregator 2 times.
MIP Presolve eliminated 68 rows and 344 columns.
MIP Presolve modified 99 coefficients.
Aggregator did 6 substitutions.
Reduced MIP has 694 rows, 1524 columns, and 14638 nonzeros.
Reduced MIP has 1503 binaries, 0 generals, 0 SOSs, and 0 indicators.
Presolve time = 0.01 sec. (17.25 ticks)
Probing fixed 10 vars, tightened 0 bounds.
Probing time = 0.03 sec. (37.63 ticks)
Tried aggregator 2 times.
Detecting symmetries...
MIP Presolve eliminated 5 rows and 10 columns.
MIP Presolve modified 4 coefficients.
Aggregator did 3 substitutions.
Reduced MIP has 686 rows, 1511 columns, and 14519 nonzeros.
Reduced MIP has 1491 binaries, 0 generals, 0 SOSs, and 0 indicators.
Presolve time = 0.01 sec. (9.79 ticks)
Represolve time = 0.10 sec. (171.35 ticks)
Probing time = 0.01 sec. (6.52 ticks)
Clique table members: 8793.
MIP emphasis: optimality.
MIP search method: dynamic search.
Parallel mode: deterministic, using up to 20 threads.
Root relaxation solution time = 0.05 sec. (105.91 ticks)

        Nodes                                         Cuts/
   Node  Left     Objective  IInf  Best Integer    Best Bound    ItCnt     Gap

*     0+    0                           69.1950       66.0446             4.55%
      0     0       66.9690   102       69.1950       66.9690     4037    3.22%
      0     0        cutoff             69.1950       69.1950     5988    0.00%
Elapsed time = 0.75 sec. (1321.83 ticks, tree = 0.01 MB, solutions = 4)

GUB cover cuts applied:  3
Clique cuts applied:  17
Implied bound cuts applied:  5
Zero-half cuts applied:  37
Lift and project cuts applied:  1
Gomory fractional cuts applied:  7

Root node processing (before b&c):
  Real time             =    0.75 sec. (1322.07 ticks)
Parallel b&c, 20 threads:
  Real time             =    0.00 sec. (0.00 ticks)
  Sync time (average)   =    0.00 sec.
  Wait time (average)   =    0.00 sec.
                          ------------
Total (root+branch&cut) =    0.75 sec. (1322.07 ticks)
Feasible solution found!
Truck nodes:
Stage 1 at customer 0 with arrival time is: 0
Stage 1 at customer 0 with departure time is: 0
Stage 2 at customer 10 with arrival time is: 16.3153
Stage 2 at customer 10 with departure time is: 18.3153
Stage 3 at customer 4 with arrival time is: 28.848
Stage 3 at customer 4 with departure time is: 28.848
Stage 4 at customer 7 with arrival time is: 36.1966
Stage 4 at customer 7 with departure time is: 37.1966
Stage 5 at customer 6 with arrival time is: 43.8976
Stage 5 at customer 6 with departure time is: 43.8976
Stage 6 at customer 5 with arrival time is: 44.8659
Stage 6 at customer 5 with departure time is: 44.8659
Stage 7 at customer 1 with arrival time is: 46.7942
Stage 7 at customer 1 with departure time is: 46.7942
Stage 8 at customer 8 with arrival time is: 50.1154
Stage 8 at customer 8 with departure time is: 51.1154
Stage 9 at customer 11 with arrival time is: 68.195
Stage 9 at customer 11 with departure time is: 69.195
Truck arcs:
Arc 1 connecting 0 and 10 with cost 16.3153 
Arc 2 connecting 10 and 4 with cost 10.5327 
Arc 3 connecting 4 and 7 with cost 7.34864 
Arc 4 connecting 7 and 6 with cost 6.70095 
Arc 5 connecting 6 and 5 with cost 0.968346 
Arc 6 connecting 5 and 1 with cost 1.92825 
Arc 7 connecting 1 and 8 with cost 3.32128 
Arc 8 connecting 8 and 11 with cost 17.0796 
Drone served customers
Drone flies from stage 1 to stage 2
Drone flies from stage 2 to stage 4
Drone flies from stage 8 to stage 9
Drone flies from stage 8 to stage 9 to serve customer 2
Drone flies from stage 2 to stage 4 to serve customer 3
Drone flies from stage 1 to stage 2 to serve customer 9
1
Customer 2 served by drone.
Y_val: 1
W_val: 1
Drone fly from 8 at stage 8 to serve 2 and then fly back to 11 at stage 9. 
Truck travel time from stage 8 to 9 is: 17.0796
Start arc cost: 5.94183, end arc cost: 8.86935. Total drone travel time: 14.8112
Drone arrival time: 65.9266
Truck arrival time: 68.195
Truck departure time = max(d/a, t/a) plus (sl/sr): 69.195
1
Customer 3 served by drone.
Y_val: 1
W_val: 1
Drone fly from 10 at stage 2 to serve 3 and then fly back to 7 at stage 4. 
Truck travel time from stage 2 to 4 is: 17.8813
Start arc cost: 6.81733, end arc cost: 9.12274. Total drone travel time: 15.9401
Drone arrival time: 34.2554
Truck arrival time: 36.1966
Truck departure time = max(d/a, t/a) plus (sl/sr): 37.1966
1
Customer 9 served by drone.
Y_val: 1
W_val: 1
Drone fly from 0 at stage 1 to serve 9 and then fly back to 10 at stage 2. 
Truck travel time from stage 1 to 2 is: 16.3153
Start arc cost: 10.9977, end arc cost: 4.06431. Total drone travel time: 15.062
Drone arrival time: 15.062
Truck arrival time: 16.3153
Truck departure time = max(d/a, t/a) plus (sl/sr): 18.3153
Done!
-------------------------Re-calculated objective-----------------------
69.195
------------------------------------------------------------------------
Solve time: 0.749
OBJECTIVE VALUE: 69.195, NUMBER OF SORTIES: 3.
In write mode
